70
2 0 5
2 1 4
3 2 4
4 2 4
4 3 6
5 0 9
5 1 6
5 2 5
6 0 3
6 2 10
7 0 10
7 1 5
7 5 6
7 6 10
8 1 5
8 4 10
8 5 7
8 6 6
9 0 7
9 2 4
9 3 10
9 5 2
9 6 2
10 0 2
10 1 8
10 2 1
10 3 3
10 5 6
10 6 4
10 7 7
10 8 3
10 9 5
11 1 9
11 2 2
11 4 1
11 7 1
12 1 9
12 3 9
12 5 5
12 6 7
12 7 6
12 11 6
13 3 9
13 6 3
13 8 2
13 9 7
13 12 8
14 0 2
14 4 7
14 5 1
14 7 5
14 10 5
14 12 3
15 2 5
15 3 5
15 7 2
15 9 4
15 12 6
15 13 4
16 1 10
16 2 7
16 4 4
16 7 6
16 9 2
16 11 3
16 13 5
17 2 1
17 3 7
17 4 2
17 5 4
17 9 6
17 10 9
17 12 2
17 13 4
17 15 7
18 4 10
18 5 5
18 7 8
18 14 5
18 15 6
18 17 3
19 0 1
19 3 7
19 5 2
19 6 10
19 7 7
19 12 9
19 13 5
19 16 6
19 17 3
20 1 4
20 2 9
20 6 3
20 9 9
20 13 6
20 16 4
20 18 6
21 0 2
21 4 6
21 5 5
21 6 8
21 8 10
21 9 7
21 14 8
21 15 4
21 16 8
21 19 6
22 0 7
22 1 7
22 3 9
22 8 7
22 11 4
22 13 3
22 14 6
22 19 4
22 20 2
22 21 6
23 0 5
23 1 3
23 3 10
23 6 9
23 7 10
23 9 8
23 10 10
23 11 3
23 12 9
23 13 8
23 14 7
23 15 6
23 20 10
23 21 9
23 22 1
24 1 1
24 3 4
24 5 5
24 7 2
24 12 1
24 14 9
24 15 8
24 16 10
24 17 5
24 20 7
24 21 9
24 22 7
25 1 6
25 4 1
25 6 1
25 7 9
25 10 7
25 12 2
25 13 1
25 14 4
25 15 6
25 19 2
25 20 2
25 23 2
25 24 1
26 2 10
26 3 4
26 4 8
26 5 2
26 6 3
26 7 3
26 9 4
26 10 10
26 11 1
26 12 8
26 14 7
26 15 7
26 18 5
26 22 9
26 23 1
27 1 5
27 5 9
27 7 5
27 9 7
27 11 9
27 12 7
27 13 5
27 17 9
27 21 6
27 22 2
27 23 9
27 24 4
28 0 4
28 2 1
28 5 5
28 7 1
28 8 2
28 12 9
28 13 9
28 16 5
28 21 2
28 22 6
28 23 8
28 24 9
28 26 4
28 27 3
29 0 2
29 1 2
29 2 6
29 5 8
29 7 10
29 8 8
29 9 3
29 13 10
29 14 3
29 16 1
29 17 4
29 18 8
29 21 1
29 23 6
29 25 1
29 26 4
29 27 7
29 28 4
30 0 2
30 1 7
30 7 7
30 8 10
30 9 3
30 10 10
30 15 8
30 16 3
30 18 10
30 23 5
30 24 8
30 25 8
30 26 7
30 27 2
31 1 6
31 2 6
31 3 7
31 6 6
31 7 2
31 9 10
31 10 4
31 12 2
31 14 2
31 15 10
31 16 7
31 19 6
31 20 2
31 21 2
31 22 2
31 23 1
31 25 10
31 26 8
31 27 6
31 29 9
32 4 6
32 5 10
32 8 10
32 10 10
32 12 10
32 13 6
32 15 6
32 16 5
32 17 9
32 18 6
32 19 1
32 20 4
32 23 7
32 24 9
32 25 5
32 28 7
32 29 4
32 31 3
33 1 1
33 2 5
33 5 4
33 11 8
33 12 4
33 17 2
33 19 5
33 20 5
33 26 3
33 27 9
33 31 4
33 32 10
34 1 2
34 2 7
34 3 4
34 4 6
34 7 6
34 8 1
34 9 5
34 15 4
34 16 7
34 17 9
34 19 2
34 23 2
34 26 3
34 27 1
34 28 10
35 7 7
35 10 2
35 11 8
35 13 4
35 14 4
35 15 10
35 17 9
35 19 2
35 20 1
35 22 10
35 23 10
35 24 8
35 29 3
35 32 5
35 34 5
36 2 7
36 10 5
36 14 4
36 17 2
36 21 6
36 23 3
36 24 5
36 26 2
36 28 1
36 30 5
36 31 7
36 32 9
36 33 5
36 34 3
36 35 10
37 0 6
37 2 6
37 3 8
37 6 6
37 7 8
37 12 9
37 13 9
37 15 4
37 16 6
37 17 3
37 18 1
37 20 1
37 21 3
37 24 8
37 25 4
37 27 7
37 28 7
37 30 10
37 35 1
38 0 5
38 1 5
38 8 6
38 9 7
38 10 7
38 11 3
38 13 5
38 14 2
38 15 3
38 16 4
38 19 8
38 20 4
38 22 5
38 24 8
38 27 1
38 28 2
38 29 1
38 30 2
38 31 6
38 32 9
38 36 9
39 1 1
39 2 8
39 3 9
39 5 10
39 6 1
39 8 9
39 10 7
39 11 8
39 12 6
39 16 8
39 20 8
39 21 6
39 22 9
39 23 7
39 24 2
39 26 7
39 28 4
39 29 9
39 30 4
39 33 4
39 35 4
39 37 7
39 38 8
40 0 8
40 4 4
40 8 6
40 9 10
40 11 8
40 12 1
40 13 3
40 14 7
40 17 5
40 19 2
40 23 3
40 25 7
40 26 10
40 28 8
40 29 1
40 30 9
40 31 1
40 32 7
40 33 4
40 34 6
40 37 3
40 38 2
41 2 6
41 5 10
41 8 5
41 11 10
41 15 4
41 17 5
41 18 10
41 22 3
41 24 8
41 25 4
41 26 2
41 28 9
41 31 3
41 35 1
42 1 1
42 2 9
42 3 4
42 4 6
42 6 2
42 8 1
42 12 5
42 13 10
42 18 6
42 25 9
42 27 5
42 28 3
42 31 3
42 33 2
42 34 9
42 37 10
43 1 10
43 2 3
43 3 10
43 6 1
43 7 3
43 8 4
43 9 1
43 10 10
43 11 7
43 14 10
43 19 7
43 20 6
43 23 6
43 24 6
43 25 4
43 26 10
43 28 5
43 31 4
43 33 10
43 34 2
43 40 6
43 42 3
44 6 6
44 7 2
44 13 3
44 17 5
44 18 6
44 19 5
44 22 4
44 23 3
44 24 3
44 26 5
44 27 4
44 29 7
44 30 1
44 31 6
44 32 2
44 34 10
44 35 4
44 36 2
44 38 10
44 40 8
44 43 7
45 2 4
45 3 3
45 5 3
45 6 1
45 10 4
45 11 3
45 12 8
45 13 6
45 14 2
45 15 3
45 21 4
45 22 6
45 26 2
45 28 7
45 29 10
45 30 8
45 31 6
45 37 5
45 38 6
45 39 4
45 40 2
45 41 4
45 43 6
46 0 6
46 4 4
46 5 2
46 7 6
46 8 5
46 10 4
46 11 4
46 12 2
46 13 4
46 16 1
46 17 9
46 18 10
46 20 2
46 21 8
46 22 10
46 23 1
46 26 2
46 32 10
46 35 9
46 39 6
46 41 4
46 43 3
46 44 3
47 0 6
47 1 2
47 6 9
47 9 9
47 12 7
47 13 8
47 15 8
47 16 7
47 19 6
47 21 4
47 22 1
47 25 10
47 26 5
47 29 1
47 30 1
47 31 6
47 32 5
47 33 8
47 34 6
47 35 8
47 36 1
47 42 6
47 43 6
47 44 8
47 46 1
48 1 6
48 2 1
48 5 2
48 8 8
48 12 2
48 15 4
48 16 7
48 17 2
48 18 4
48 22 10
48 23 3
48 25 4
48 27 9
48 28 2
48 29 7
48 32 8
48 33 5
48 36 7
48 38 10
48 39 3
48 41 8
48 42 5
48 44 9
48 45 1
48 46 4
49 0 3
49 2 7
49 3 4
49 4 5
49 5 3
49 6 3
49 12 3
49 18 5
49 20 10
49 22 8
49 24 7
49 26 9
49 27 9
49 28 6
49 31 1
49 33 6
49 34 8
49 35 8
49 36 4
49 42 1
49 44 2
49 45 3
49 46 7
49 47 8
49 48 6
50 0 7
50 2 5
50 3 3
50 4 2
50 5 6
50 7 9
50 8 9
50 10 3
50 11 7
50 12 6
50 17 4
50 18 6
50 19 3
50 20 6
50 21 3
50 23 8
50 25 10
50 26 5
50 28 3
50 29 6
50 30 4
50 31 1
50 33 4
50 38 7
50 39 6
50 41 4
50 43 5
50 45 1
50 46 6
50 47 2
50 48 10
50 49 3
51 1 2
51 2 1
51 3 1
51 5 3
51 9 4
51 11 3
51 14 4
51 15 2
51 16 4
51 18 10
51 21 4
51 23 9
51 25 5
51 27 5
51 28 4
51 29 7
51 32 2
51 35 8
51 38 5
51 39 6
51 41 5
51 42 9
51 43 7
51 44 1
52 3 10
52 5 7
52 6 1
52 7 5
52 8 3
52 11 4
52 12 7
52 18 2
52 19 8
52 20 5
52 24 1
52 25 7
52 27 3
52 31 3
52 32 4
52 33 8
52 35 1
52 37 1
52 38 8
52 40 10
52 42 9
52 43 3
52 45 10
52 47 3
52 48 8
52 49 7
52 50 10
53 0 10
53 1 6
53 2 5
53 3 4
53 5 2
53 7 3
53 8 9
53 10 9
53 12 7
53 13 4
53 14 8
53 18 3
53 27 6
53 28 9
53 30 2
53 33 10
53 34 5
53 35 3
53 37 7
53 38 4
53 39 7
53 40 1
53 43 10
53 44 4
53 45 7
53 46 3
53 47 9
53 51 2
53 52 6
54 0 9
54 3 1
54 4 2
54 8 7
54 10 10
54 13 6
54 16 7
54 20 5
54 21 3
54 25 2
54 26 5
54 31 10
54 32 10
54 33 2
54 34 10
54 36 6
54 37 4
54 39 2
54 41 3
54 44 9
54 49 6
54 51 10
55 0 3
55 2 4
55 4 7
55 6 4
55 7 2
55 9 1
55 10 2
55 13 4
55 15 3
55 16 10
55 17 7
55 18 6
55 19 3
55 21 6
55 22 10
55 24 1
55 25 3
55 27 9
55 31 8
55 33 2
55 38 7
55 40 7
55 42 8
55 43 8
55 45 9
55 52 6
55 54 3
56 0 3
56 2 7
56 3 3
56 4 7
56 6 9
56 10 6
56 15 2
56 17 1
56 18 7
56 21 6
56 23 1
56 24 7
56 25 9
56 26 3
56 28 2
56 29 10
56 31 2
56 32 10
56 34 1
56 35 6
56 41 7
56 44 8
56 46 1
56 48 10
56 50 9
56 55 4
57 0 7
57 1 5
57 2 4
57 3 9
57 5 2
57 6 2
57 7 7
57 8 5
57 9 7
57 13 3
57 16 1
57 19 4
57 20 6
57 21 5
57 25 1
57 30 7
57 32 5
57 35 7
57 36 5
57 37 5
57 38 7
57 39 2
57 40 9
57 42 10
57 44 10
57 45 2
57 47 6
57 48 5
57 49 8
57 50 5
58 1 2
58 2 4
58 5 5
58 8 1
58 9 1
58 12 1
58 14 7
58 15 7
58 18 3
58 19 1
58 21 10
58 22 6
58 23 4
58 25 4
58 27 1
58 28 6
58 29 2
58 33 4
58 37 4
58 38 8
58 39 4
58 46 1
58 49 10
58 50 2
58 52 7
58 54 5
58 55 8
58 56 6
58 57 10
59 1 6
59 2 4
59 3 10
59 5 4
59 7 8
59 11 9
59 12 3
59 14 2
59 15 6
59 18 3
59 19 6
59 20 7
59 26 6
59 27 3
59 28 3
59 30 9
59 36 9
59 37 9
59 38 7
59 39 4
59 41 5
59 43 2
59 44 2
59 45 3
59 52 5
59 57 1
59 58 9
60 1 10
60 3 9
60 5 2
60 7 3
60 10 10
60 11 4
60 14 2
60 15 4
60 19 9
60 20 3
60 22 10
60 23 6
60 32 9
60 33 2
60 34 1
60 36 10
60 37 6
60 38 10
60 39 1
60 42 5
60 45 7
60 47 4
60 48 3
60 49 4
60 51 8
60 53 10
60 57 5
61 0 4
61 4 6
61 7 7
61 9 6
61 10 4
61 11 9
61 16 9
61 17 6
61 19 5
61 27 1
61 29 9
61 30 8
61 32 8
61 33 9
61 34 8
61 36 3
61 37 8
61 39 8
61 41 1
61 42 2
61 44 1
61 46 10
61 49 3
61 52 7
61 54 5
61 57 2
61 59 9
62 0 2
62 1 9
62 2 8
62 3 5
62 4 2
62 7 5
62 10 2
62 11 8
62 14 5
62 15 8
62 18 5
62 19 3
62 20 2
62 21 2
62 23 8
62 29 2
62 30 6
62 31 5
62 32 5
62 33 2
62 37 7
62 43 5
62 44 3
62 45 10
62 46 4
62 48 1
62 50 7
62 52 8
62 53 2
62 54 7
62 55 4
62 58 5
62 59 3
62 61 7
63 0 2
63 2 10
63 5 10
63 6 9
63 8 2
63 9 4
63 10 3
63 11 4
63 12 8
63 13 2
63 15 9
63 16 6
63 18 1
63 20 5
63 22 9
63 24 6
63 27 2
63 29 10
63 31 10
63 36 6
63 42 3
63 44 8
63 48 2
63 53 7
63 57 10
63 61 3
63 62 1
64 6 7
64 10 9
64 14 8
64 15 5
64 19 8
64 21 9
64 24 7
64 25 6
64 28 9
64 29 8
64 31 1
64 37 5
64 38 5
64 39 7
64 42 4
64 43 2
64 47 6
64 48 2
64 49 9
64 55 3
64 56 10
64 57 3
64 61 5
64 62 1
64 63 6
65 0 1
65 6 1
65 9 4
65 10 9
65 12 3
65 18 5
65 22 7
65 23 4
65 27 4
65 29 1
65 30 9
65 32 7
65 36 8
65 37 6
65 39 5
65 40 2
65 42 8
65 43 5
65 45 6
65 47 5
65 48 6
65 49 2
65 50 10
65 52 7
65 58 4
65 60 1
65 64 3
66 0 5
66 1 7
66 3 10
66 4 6
66 7 6
66 8 3
66 11 2
66 13 1
66 16 5
66 17 7
66 19 1
66 22 6
66 24 9
66 26 5
66 27 5
66 32 1
66 33 7
66 34 6
66 35 4
66 37 3
66 38 9
66 39 2
66 42 7
66 43 5
66 44 2
66 45 4
66 47 10
66 48 9
66 50 8
66 51 7
66 52 9
66 53 5
66 54 7
66 55 1
66 61 6
66 63 7
66 64 6
67 0 9
67 7 3
67 10 5
67 11 10
67 14 2
67 15 3
67 17 9
67 20 7
67 21 1
67 22 6
67 24 2
67 25 10
67 30 1
67 32 6
67 33 3
67 34 1
67 35 6
67 37 6
67 40 4
67 42 2
67 47 8
67 50 3
67 51 7
67 52 4
67 53 8
67 58 7
67 60 4
67 62 2
67 65 10
68 0 3
68 1 7
68 2 9
68 4 1
68 5 8
68 6 1
68 7 6
68 8 1
68 9 1
68 10 6
68 14 10
68 17 3
68 18 7
68 19 2
68 20 4
68 22 9
68 23 1
68 25 7
68 26 2
68 27 9
68 28 10
68 31 9
68 33 9
68 34 5
68 35 9
68 36 10
68 38 8
68 39 6
68 41 6
68 43 4
68 45 4
68 48 5
68 51 2
68 55 9
68 58 3
68 61 6
68 63 7
68 64 10
68 65 2
68 67 7
69 1 1
69 4 3
69 6 3
69 7 5
69 10 7
69 11 7
69 12 3
69 13 6
69 14 10
69 15 1
69 18 7
69 19 4
69 21 5
69 24 9
69 25 2
69 27 9
69 28 9
69 29 10
69 33 2
69 36 8
69 38 7
69 40 9
69 41 3
69 43 5
69 44 7
69 45 3
69 46 9
69 48 4
69 51 6
69 54 7
69 55 2
69 56 2
69 63 3
69 65 7
69 67 1
